0000000000000000
0000000000000000
0000000000000000
0000100000000000
0000100000000000
0000111110000000
0000111110000000
0000000010000000
0000000010000000
0000000010000000
0000000010000000
0000011110000000
0000011100000000
0000000000000000
0000000000000000
0000000000000000
